PARAMETER_FILE = even/LKH_uncomplete_graph/x10/nei/par/random186.par
PROBLEM_FILE = even/LKH_uncomplete_graph/x10/nei/mat/random186.tsp
Successes/Runs = 0/10
Cost.min = 1042, Cost.avg = 1042.00, Cost.max = 1042
Gap.min = 0.0000%, Gap.avg = 0.0000%, Gap.max = 0.0000%
Trials.min = 1000, Trials.avg = 1000.0, Trials.max = 1000
Time.min = 0.39 sec., Time.avg = 0.50 sec., Time.max = 0.68 sec.
Time.total = 5.19 sec.
请按任意键继续. . . 
